unsat
(:max-memory          18.17
 :memory              18.01
 :nlsat-conflicts     3
 :nlsat-learned-added 2
 :nlsat-propagations  10
 :nlsat-stages        3
 :num-allocs          10026
 :rlimit-count        12691
 :time                0.01
 :total-time          0.01)
